Route #1: 15 8 17 42 21
Route #2: 1 32 28 29 19
Route #3: 5 39
Route #4: 27 30 14 22 38 13 3
Route #5: 46 23 41 45 35 10
Route #6: 12 9 33 49 24 16 11 43 36
Route #7: 4 18 26 47 25 7
Route #8: 44 6 31 20 37 40 48 34 2
Cost 1346